4df002408133abe5542eadfb443dcfad95dd2a03	15101900
4df0087ce033b00eec82435fc69608d633e76388	iluvjohn
4df0179dda01538c9eedcafb8789c0805e4fd0c4	Ottawa
4df0415a4e45024152aef3752f584d75468faccf	fxd2k2
4df061aa43ee1c7e9763d0416942cc25610ccac7	SlipKnoT
4df074d8e305c7163d5f6b4f480db7851c662dc4	caramelit
4df08a27ebb8b8aec90f9ad048b1816c594233f5	937999211
4df0b47ecbabe771b16ea6555f1104feaf4e183f	wtwjg
4df0ba3ad54821b069da133e48a74958f05264ad	tumadre1
4df0dc02b551c082668c525b9dd4fa5c240ba7d9	Wsx567
4df0fd4a1d9f9820f671c89dc7dac34aa76c9dfb	aahz
4df103b6c9d952aa90e898d50bdc7d6d92492eb8	7185497
4df1091963c49321b3333bb809b1e4079b879009	kerbit
4df159c8f8b4790dfb750debf4b0979e6e3d91ee	9656507
4df15e5eaedbe18d392c4695a2d78d756bebaf61	wvkhtqfp
4df1872775e9eec9c046fc5d6f421467deb9a93a	ynggrl
4df18acc09594dab1b29cdd7ef1055e3a6ec1ff6	panzerv
4df18ad1e4d36ccb7f36566627f450ae59131a54	021770
4df19132b065283b406eea223361697c2dd027b0	1Eanut
4df1995f4e4ab26286f65ac76b719714716c4249	q1e3w2r4
4df1aa4642341ae7ab1ea2859b023b0bae0e978c	gbrekm
4df1b8fea867195cbe79a1d25bb66839d9b4d7fb	zero0
4df1bb7c13bef48a8cf52baed80c2cfb16257189	annjohnbuddy
4df1ea6fb104ba2853566fa484198505c8cec4a0	ddt666
4df1ef2eb9ecb4cfeb164dd9420068c25414e2ba	plotter1
4df1f86c78067596b0b44a44540ae65679401a81	zybarev
4df1fe8aa5aaead633cb48708258eb2c119d45fa	anthony15
4df1ff0f6bfca93969d7843e08cc62e84daaf4e2	82mix22
4df206fc923c16b5fb02691f95be0161ff5114eb	faizal
4df211dae7187bac1c7fcd2b13c55bbd6b9a52cf	goodron
4df21ef360231286c9cdc8dcaa9a924faa33767c	zarinha1
4df22805be6f697b229f3a9e75e63e0a0bf9d955	1008343
4df237b7cb0ab467d954b2386a95b42674ff9c59	YVeZuCuJEMa
4df24f2c62096f8f8bcc8f156997d347652c7004	kiedis
4df2550c3a25643957dbc67619d8fdb95b60b145	omarli
4df27baf72ca70634649b71f608d2e9c481f4a81	bubu21
4df28f4fcd4e55fba03fff901ce013f1cd55d292	628310
4df29f8757e32f905bce1e503687a319def15fd2	thunder1
4df2afd85aa0d0b532d23a36dcff24d9c935e1e5	zulu4kov
4df2c8d82257f8b878965c20c936720b97cdfae7	xtkjdtrgfer1999
4df2cd7786ccba4a5bbeeee2fc1c36b9a42beb43	dillon1
4df2cf6a310a80097b7f776e1c62d366432e71f3	55588
4df2d3a2bbcd96ba9766a6a52e2e91c87b630831	toaster1
4df2da4e5ab430048304ae6c40213b051352a13f	spanker
4df2fa99a0fda698456424b104750e062c5ee938	WIFwgO
4df31c418356647d95b8fa22c46d07071498ecb8	ANTIQUES
4df323db209af5f6f22757d734538819f4990936	32snakes
4df32cbdc9b836143df092f0ff361026cff050ef	543045z
4df35dc8300d8a78eb74e67760ebf50684948f4c	danag
4df36fc803afca8fadd52a8b0a1bcc7d26c418e9	spate
4df3a5496ff8b30e2fa0c11142bf0e735edb11b7	yoshi1020
4df3bcaf113ab303c076d589b59592000ace5b71	vzs755zz
4df402162cb4ff996f9afc5eef1252e6150c9dda	yankeesnicebig
4df407bc456a7d1cefff5d6457091b33672c2f25	willi2k6
4df42362072fd664cf36b04ff8099f16fac575fe	xhitalia
4df432dc85ce4b6284f3564faa4c59aca881e033	57LRjQzWXHLJo
4df4451f1d9572c5a4ab659bcc63c2afbaa0dbd1	john2020
4df44961fe88d81025fb38da2ace914be2af82c0	95289
4df47f4279c0fb85e2cff545ebc2de34f2a506ef	ytiroros
4df47f4571ff6eba05690b0b439c8c2f2b142bd6	03277
4df4811b086c9c69a72849660979ecda12c44704	353wet
4df48233f8659afbbca251c5b0037c848d4b845d	amigomio
4df48752d2757d1c2963b6e7b85b23b714d6d9d7	0670
4df48e79043f98b8dab6ed0a69153c4055b86236	121066
4df490bf48126b47580547d466c9204eebc40ccd	2410200
4df49af57dd6d6897516ec7c33a86d395da5bed3	andyadl
4df4a34dca54a6e39f950c39976754a059aeff4d	navy24
4df4c740a14b5380948291a793b37f36ea266829	vlad80953994563
4df4d84bd354e3b390b18d12f27c01585c178c87	dbrf13579
4df4e2dd1d5b5d57817a1b40eebe1142def168fa	300783
4df4f40e1f8958b48dcef5358ac964246b11c70e	zmey5891
4df4f9619688858dc480337bfabaf28aabf3fca0	carouinhawk
4df502eaf0d3dcc0ffa0e9f9f97e1fe6ed99567a	12345wer
4df51574d38eb15ea265efa101a315242da5bc7e	siana
4df519a46c06148bd05f411ec0fe50f5392323d3	yoonsup2
4df520353497828ef8e10aaaf99f3228c3849770	paige14
4df529576a3da2627db70cb1f136be80c0e15a90	zi46ii3
4df5384c9b0cbd6c063f16ccf8cdcdd1491fa64d	kael3476046
4df5512630323c35baaa10ecd927933d063abc26	SR0548
4df571740954eb5f52ba429919f6d44080d53135	ragingbull
4df5820d3d259807a6cc86309ee35b54eb2b1c12	10132731
4df58d467c09ab52446ed0a3f7040e7f5f80a609	kelly76
4df5c915558e9e4bcb02f786fdeecd27a9de19a5	wweubrvim
4df5ccb4189b36f236a03b2f9ea3239276754ab1	dusik
4df5ceece54ec115f7cdf75e75fa75daa9d3b1ee	30061994n
4df5d1c1ca0a42be8575727c150236ad50847cbf	stellabl
4df5d46d36c73868d13bdc0f68aba35aa1c8f74d	101938
4df5f7764dc31978139e002ef0dd990d7ec2caf5	jolsen69
4df5fa7d97d7cbe7184dbaf4f9c97f91a66fb453	091401
4df6039b42a92b9cea70a6aa43315ab6eed0ef9c	140492
4df661ed0ca9f587fce7b277053255e72a21257d	passdrock11
4df6726a0ac4f6b4885e3e3c268ff6e420f08409	taco99
4df672cf2a449aa72ccf1eab1c950e38df57ff68	cdfview
4df6776de3b5cbc38a24e8c4037bab7000d39df6	loggers
4df67b2e3ff264beb290c3ac95c0b00fb78ce785	ddddd5
4df6a6b644dc201c83830b6ad1644cdab0ff188e	zivan
4df6aed6539dedec06068d7ae2afafc2086acc09	moocow21
4df6dcea2b474b530d90fb89e6f349a79cc6685d	swazz123
4df6eca0c769f849b4f9b1cc8372c5006f3511c8	wins4u
4df6f1b84d3d62267cfbd480ec267c49465532e6	010998
4df6f48e6219b3f2e477c2b44a4efde66e7b246a	crowfoot
4df6fcad12ffeef4ae65adfaa6911831d56e4154	2dsit488
4df6ff32e51f5a3a303a31965f8e818524a59a4f	072348
4df7032f53875fa8a59e555bdf5bf2b22a9c0517	charee
4df70ffcae004f89928925b5d1581fde57b30360	vladog2020
4df7128d02cc8623bf20fc2138ac909472539d2a	yogi58
4df713fb7935fb53c5b9c713e83983ef771e1bb6	anthmatt
4df71f388a9778e9cf86c8803232d232378133f5	d0101
4df72b5ff41f8dfcf4fb86342c113e49b974b61b	082501
4df742b47d4d648439014b8ae26c0c44be5d7e4c	SAUSAGE
4df750d0e5df23c1ce83203e00b8152e7d0176a6	frvcil
4df759806bf82b493b72de942c9e0a9126bcf37c	kyuss5
4df77548dd2bd4b126803c1125f3606fd78925a0	s0app
4df779eca69dac5b7e9c5bcdff5bd751e9e12c96	kurt12
4df77e971feb4b5ed5bfcf1d4f66bc00f720d8a3	brownparsley
4df78cf3fcd5475eae742d1acbff79bd4d44e260	rizzo
4df78f75b5a6761366470a7ac3dd9d56ca698bad	buddha19
4df7aa73e5cebbcb319c8bf8343ede5d8b212665	5484
4df7adde87b80f10c7a5d9e3b038222a068bfc5a	4202
4df7be1b3862b185bb2eed06269cd15393e15bd0	xavierkiller
4df7dc071d6d2f31215c6c5cf3c439ed35bf5883	womaninred
4df7ef6725aaa1760c4d0d43e9f159e30c2b3dff	riest
4df7f16ee83fca33359d18c291b754344aa1d20c	15081964
4df804250664036b88e5eb19ccbdeca4263473a4	washhog
4df8057d0a64016753505a578f4d8825a4ded84b	WjptYA
4df8214a7a92f5aff74ec5577551c9c80bf0f1a1	vtvtrk.vbctn
4df8462935b3c44d7a590f486f8e02922310fe85	clay_17
4df8521f9aa771598ad0340801d21bc4047a4096	wgv6r
4df85da32cf7e96ffe954d76442d85b080edf3ba	zelda5hp5
4df899459f74cdb7b4498f476fcda6a830a19032	moskvich
4df8d7a80b726270b34b9bd546bc12df061bc6bd	samjack
4df8dd5e088ca6a350454f44b48871b735ddd328	borisova
4df8ef38cdd35501e12ba2072275e509bd1c6e97	Faulkner
4df8f589ac595b5ad114c98446218557c6d1a2aa	dollys
4df8fe0637dced8ef05eb608fb0b11f825064081	q0987654321
4df90ec8ba08179d6efa4055d506faa1aa042b16	9568
4df91409db15f1925752a71cd05ebeae20073435	6108225
4df921b385159c4e5384dfe624a0049068cf3512	cartman2
4df9335940f59be48a5bd0b79d954c0f18ba25fb	solomatina
4df94ed2f144af21986bc7ce964c5faa59b52712	ytrewq09
4df9577f2875f4ec57d98fc867474def03916740	pussy4us
4df979e901c02abfd85445733f90f76682804ac2	rezonans
4df9a47c5f797ebebe93b357ff65777581146a07	snr07
4df9a9349a3d3f579f7c811e4f5e7b52eb69e23d	ratmeet1
4df9cf2c6cd7246c2587f2b5e14719927d6b52b1	123qeasd
4df9d5e27d9ab407bc09a0fe35f7a2e91af300c4	Ybrcvjhjl
4dfa0185094032e4689e0b16741f2f76d8283f7d	197608
4dfa04929271d2d1c1ab70404c20409a3b1e0fd1	lisadocha
4dfa1530fe92c75e565f10dfe7bc35b88b9c1651	HoSghaj
4dfa48a6ad6fed80bdf6f306f2d8d6578bf36cae	nikaerf
4dfa52cb55bca7a40517c84a15e277a06434f26d	love2fish
4dfa5526fb139b1c354c9065ea32a2aadd690ed8	hotone1
4dfa55ee503cc6147db7b435c0776c0101b61bbf	197309
4dfa56e1e8b1e60c55093a84edb22eb230fb5f93	yankeescatalinorzan
4dfa5c44827c08a04495d25f1a0f47fd4e03d291	whiskin0
4dfa60fabc84d43a97e694091451acb3595755bd	islandsar
4dfaa914ffcba5f8a0e861066609862f52b3d0bf	vl19031949
4dfac24486986cda613d15ae0f91a2eb525587a8	darusya
4dfac8633742edee57fa3a23f53356cd6626f259	vwal4crf
4dfacbde7d4ae0924ce729aa1df79648924aa87a	wussydog7
4dfad522a70f4d4cb767b1019a4f056a51016e37	jc1117
4dfaddc8dd680396269cd75b7d822a428b29ccc4	Scottie1
4dfae856fdc1206566ece4ecd6d7bd5dfb702635	1Schnee
4dfaea5345d40a1fe093d569d7d416a2a1efd50b	kissman
4dfb07de835403acca407719907aa0a6769af292	masha1990
4dfb1be65fee78537368f6ae3f49df9929dd35b0	9101974
4dfb26987ca452872bfc8f60777413ad68b0dfd5	summer42
4dfb3c1dad64ebcb00bf7ac46e4117144d689a84	92023672
4dfb5f0798713335c0fcedac3456be3bf905bb1f	200107
4dfb670d0460e000a61b8287fca0d496f566ea52	xu2XKoC
4dfb771311e8cbd906a7fb75903bb837c3aff153	forgeit
4dfb790228978f56f06ea4be47f4e141f82299e4	as5150
4dfb7a62127c69fd195c37d97681c50b6a4825af	sniffs
4dfb912399a933395f8a19a86d5f8aabef1fa009	yenfao
4dfbb0f76894ac220b1f60f1e44a7e526819fbe9	x30091985
4dfbbfad319fb73711a3e864f9aac028b4936eea	8597581
4dfbc65f185e3379e21ea3cd9c9b6cec40a1f0cf	kazanova1989
4dfbe97bd9d6ee33f470e3184e27f14b474189fd	yk93iga7
4dfbfcca2e20005d9bb83d4bd163301d290eb32f	Winfried1
4dfbfe0ea61ea851f45caa002ff8d99436309f66	birdyt
4dfc058bd00ef2bed9d99c72e5b51e8f02a44f70	carlosjos
4dfc09d334b1ee79c7d020dd649cf140b5bb2c1d	zakiev
4dfc2233ee40fd11393549dc95b1bc2f698717d8	itiswhatitis
4dfc22575e490b950dc69b16b487b1451c4e4095	trioveer
4dfc5203839a6a1b1870d07cc1b0583f69c31525	phil1009
4dfc7d5a49a3d508dea2a63ff15d7774372e9691	whaaa
4dfc9288121ccedc064a056311abf1b39204329c	xgirl758
4dfca4b89b73919d69b8cdf147052b1397842f80	XHSNIPAR
4dfcc43bb99ea197f09481d4d24e358597f1c7e0	warezpas
4dfcc48ca376823286624a7b37405953d6aa8a21	zMAkuT
4dfd0fbe4f7fc1608255bfb0ee33e510ce6984db	523743
4dfd13238c0488fe13030aab20d290f458baead7	hockey98
4dfd15e0488729d0b72e66a175b10063c1ed9fc7	22031967
4dfd1f957ac6519a1654d1a6b39a871c1a0d8ea8	YbOEIg
4dfd3ea7a85c0e668bb5a52bb8812ccb1c0e8c4f	8238533
4dfd5a4b44289a57c77d004bc6217793c98bd155	kingbee
4dfd5b3471f5a038e2cf610fb6e21e012a69e065	igonina
4dfd5fdc5e83366ca5b3462c8790f0e2a11c092f	Heart1
4dfd67cf6f1e384ce626f2943620186344bb2ccf	12064
4dfd82cbcd4e965b240a1bff0e0b706cf44b923a	139683
4dfd84ebb5cbfa05f13770af952ce4581f0d344d	176120
4dfd9f47f90c4f185885cf82ea0162840a15496d	vonmises
4dfda58fa529e6064a02f507bba84c13e5557fde	xapakias
4dfdb4057bc4d1cf04929b86dad9bddedc69bba6	zx27vcsd345gtr
4dfdc60afd38d7b4a4ada5ed538976b52a5f208d	wtfnoob
4dfdc63217325e89facf211cfff28d1eb3c5e375	didoune
4dfdd0057829e44283b10b6a432d32b90827180f	genargi
4dfdd80930844f1511e13e431c36d89ca159fa5e	gosharks
4dfe2e5a495cc742ad326f6bc0493eea9dd9eba2	wiicked13
4dfe38b22bbbe7d0060e06eb1e4ed4eecd17ad95	220378m
4dfe3a73c83a3173e8677ca5764b74b59b4d3348	171188
4dfe4a35a77fa7b4d7a5f9d803db4f50b63fb544	1234567890r
4dfe4fa8bc0b655616bdda27bc3cd559d08c1a03	pm202400
4dfe5254a12e6765b97d4de715dfbd8fb6f0d460	6528908a
4dfe567d7dbdde310f624df0f4f8b235920c35e8	xcaliba
4dfe56f38d3eb5dac14c6cb58739ab2c08c51397	Xxxtrem1
4dfe5e8c33f5f2f4c95d18c5377e1e8d513f6250	alba01
4dfe5f156dc84374303768c731e3d49b5eb2d484	Bigmoney
4dfe77760fa16933f9838a083dd3025f84beeb01	popper21
4dfe8c46799873019177c34da8196e6752fdb26d	diana09
4dfe95e25dddc020799573915ca4b56f7a9f80b8	myrmansk
4dfe9959ad53bd9d56772bb69a8c4b7183cee00e	hamlin11
4dfeaea9261790f258ed99547c43cc324d329226	voortee
4dfed0ba7ef2df64acedfefc0ec5a3c0845e2e20	26011994a
4dfed2146f2d354d5c2684c5be0d4e2e63d2d516	stephe2w
4dfeda261b6b187db2bb7ddfdfaa533af74462e7	lovefire
4dfefec5ba17f42fb167c3edb4bebce60dce379d	lala12345
4dff0850860ef8daa8e374372f21cd372da41d0d	telepyzeg21
4dff12d955a936dad8997ca3e14baa9a2443143f	w7TUy2v6
4dff14e147b657cc8703e67f31bcefcfadb0e8d7	NjVAJZ
4dff194d2bc26272ad6aa22d3ebbb8560618f459	feet02
4dff1def43ce5ea880bdec57a5ead3cd7fc1a06e	710706
4dff1e6adc86f3e253ee8aac4e1e75c9aeb0d332	yb2eap
4dff4a772c986fa6726968994aa2d53d6bd4bb09	x-15
4dff4c2fb9737900f26421861e887210f7f704df	wer55df
4dff5b9e09de14d0846f604c5b3c50c1d1ef6bed	yuyu11
4dff5bc72a2962e4fd592fcc56ac43059aa56a84	p59f98
4dff8e293ddfa94814a53fd45914f921d24a1d8e	mothers
4dff97608b8ec446262217ece72219faa388575e	wolfmand
4dffa8ae0c449d366147e4e80e4ae53fcf8663a6	d106712j
4dffbda447f0b47ccc8e835ff8416fb9ab1977de	030568
4dffea15788ca03da7e8760e6e2aa80c56977f20	cfhvfncnfh
4dfff2c49397441857895188cbd1e57f83e1a4f7	wolfp
4dfff2ed4971405daa85e75e7281fbb5281e0a0e	bambolotto
4dfff9e8f46fa7df86c5bb2fc61ccff989a318d9	bigimot
